1
1000
249
494 1
493 1
491 1
489 1
488 1
486 1
481 1
478 1
478 1
474 1
473 1
472 1
471 1
469 1
469 1
468 1
459 1
457 1
456 1
455 1
455 1
453 1
449 1
448 1
446 1
445 1
442 1
439 1
438 1
438 1
436 1
433 1
433 1
432 1
431 1
431 1
427 1
425 1
425 1
421 1
418 1
418 1
414 1
414 1
412 1
409 1
409 1
407 1
403 1
401 1
397 1
396 1
391 1
386 1
385 1
384 1
384 1
384 1
381 1
380 1
380 1
378 1
378 1
377 1
376 1
375 1
373 1
372 1
372 1
372 1
372 1
370 1
369 1
368 1
366 1
366 1
366 1
363 1
363 1
363 1
363 1
362 1
361 1
360 1
360 1
360 1
358 1
357 1
356 1
355 1
355 1
354 1
353 1
353 1
353 1
352 1
352 1
351 1
348 1
347 1
346 1
346 1
345 1
345 1
344 1
342 1
339 1
339 1
337 1
336 1
335 1
334 1
334 1
332 1
332 1
331 1
328 1
328 1
325 1
324 1
318 1
318 1
317 1
316 1
316 1
313 1
313 1
312 1
311 1
310 1
308 1
306 1
305 1
304 1
302 1
301 1
301 1
300 1
298 1
298 1
297 1
297 1
296 1
296 1
296 1
295 1
295 1
295 1
295 1
294 1
294 1
292 1
292 1
291 1
290 1
289 1
288 1
288 1
288 1
288 1
287 1
286 1
280 1
280 1
279 1
279 1
278 1
278 1
278 1
277 1
277 1
277 1
276 1
276 1
276 1
276 1
276 1
275 1
275 1
275 1
275 1
274 1
274 1
272 1
272 1
271 1
271 1
271 1
271 1
270 1
270 1
270 1
269 1
269 1
269 1
269 1
267 1
267 1
267 1
266 1
265 1
264 1
263 1
262 1
262 1
261 1
261 1
261 1
260 1
260 1
260 1
259 1
259 1
258 1
258 1
257 1
257 1
257 1
257 1
257 1
256 1
256 1
256 1
256 1
256 1
256 1
256 1
256 1
255 1
254 1
254 1
254 1
254 1
254 1
253 1
253 1
253 1
253 1
252 1
252 1
251 1
251 1
251 1
250 1
250 1
250 1
250 1
250 1
250 1
